NAME: berlin52 (modified to 10)
TYPE: TSP
COMMENT: 10 locations in Berlin (Groetschel)
DIMENSION: 10
EDGE_WEIGHT_TYPE: EUC_2D
NODE_COORD_SECTION
1 565 575
2 25 185
3 345 750
4 945 685
5 845 655
6 880 660
7 25 230
8 525 1000
9 580 1175
10 650 1130
EOF

